(set-info :source |printed by MathSAT|)
(declare-fun |.x{81}| () Int)
(declare-fun |.y{8}| () Int)
(declare-fun |.y{7}| () Int)
(declare-fun |.y{9}| () Int)
(declare-fun |.x{82}| () (Array Int Int))
(declare-fun |.y{10}| () (Array Int Int))
(declare-fun |.x{85}| () Int)
(declare-fun |.y{11}| () Int)
(declare-fun |.x{80}| () Int)
(declare-fun |.y{12}| () Int)
(declare-fun |.x{77}| () Int)
(declare-fun |.y{13}| () Int)
(declare-fun |.loc{3}| () Bool)
(declare-fun |.loc{5}| () Bool)
(declare-fun |.loc{4}| () Bool)
(declare-fun |.loc{6}| () Bool)
(declare-fun |.x{83}| () Int)
(define-fun .def_20 () Bool (! |.loc{3}| :next |.loc{5}|))
(define-fun .def_62 () Bool (not .def_20))
(define-fun .def_22 () Bool (! |.loc{4}| :next |.loc{6}|))
(define-fun .def_52 () Bool (not .def_22))
(define-fun .def_122 () Bool (! (and .def_52 .def_62) :init true))
(define-fun .def_12 () (Array Int Int) (! |.x{82}| :next |.y{10}|))
(define-fun .def_87 () Int (select .def_12 |.x{83}|))
(define-fun .def_14 () Int (! |.x{85}| :next |.y{11}|))
(define-fun .def_88 () Bool (<= .def_14 .def_87))
(define-fun .def_114 () Bool (not .def_88))
(define-fun .def_44 () Int (* (- 1) |.x{83}|))
(define-fun .def_16 () Int (! |.x{80}| :next |.y{12}|))
(define-fun .def_75 () Int (+ .def_16 .def_44))
(define-fun .def_8 () Int (! |.x{81}| :next |.y{8}|))
(define-fun .def_76 () Int (+ .def_8 .def_75))
(define-fun .def_77 () Bool (= .def_76 0))
(define-fun .def_109 () Bool (and |.loc{5}| .def_77))
(define-fun .def_18 () Int (! |.x{77}| :next |.y{13}|))
(define-fun .def_79 () Bool (<= .def_18 .def_16))
(define-fun .def_80 () Bool (not .def_79))
(define-fun .def_110 () Bool (and .def_80 .def_109))
(define-fun .def_39 () Bool (<= .def_8 0))
(define-fun .def_37 () Bool (<= |.x{83}| 0))
(define-fun .def_38 () Bool (not .def_37))
(define-fun .def_40 () Bool (or .def_38 .def_39))
(define-fun .def_111 () Bool (and .def_40 .def_110))
(define-fun .def_42 () Bool (not .def_39))
(define-fun .def_112 () Bool (and .def_42 .def_111))
(define-fun .def_113 () Bool (and .def_22 .def_112))
(define-fun .def_115 () Bool (and .def_113 .def_114))
(define-fun .def_116 () Bool (and .def_62 .def_115))
(define-fun .def_103 () Bool (= |.y{12}| 0))
(define-fun .def_99 () Bool (= .def_16 |.y{13}|))
(define-fun .def_84 () Bool (not |.loc{5}|))
(define-fun .def_100 () Bool (and .def_84 .def_99))
(define-fun .def_101 () Bool (and .def_20 .def_100))
(define-fun .def_102 () Bool (and .def_52 .def_101))
(define-fun .def_104 () Bool (and .def_102 .def_103))
(define-fun .def_10 () Int (! |.y{7}| :next |.y{9}|))
(define-fun .def_33 () Bool (<= .def_16 .def_10))
(define-fun .def_105 () Bool (and .def_33 .def_104))
(define-fun .def_54 () Bool (= .def_8 |.y{8}|))
(define-fun .def_106 () Bool (and .def_54 .def_105))
(define-fun .def_92 () Bool (= .def_12 |.y{10}|))
(define-fun .def_107 () Bool (and .def_92 .def_106))
(define-fun .def_58 () Bool (= .def_14 |.y{11}|))
(define-fun .def_108 () Bool (and .def_58 .def_107))
(define-fun .def_117 () Bool (or .def_108 .def_116))
(define-fun .def_94 () Int (* (- 1) |.y{12}|))
(define-fun .def_95 () Int (+ .def_16 .def_94))
(define-fun .def_96 () Bool (= .def_95 (- 1)))
(define-fun .def_72 () Bool (= .def_18 |.y{13}|))
(define-fun .def_78 () Bool (and .def_72 .def_77))
(define-fun .def_81 () Bool (and .def_78 .def_80))
(define-fun .def_82 () Bool (and .def_40 .def_81))
(define-fun .def_83 () Bool (and .def_42 .def_82))
(define-fun .def_85 () Bool (and .def_83 .def_84))
(define-fun .def_86 () Bool (and .def_22 .def_85))
(define-fun .def_89 () Bool (and .def_86 .def_88))
(define-fun .def_90 () Bool (and .def_62 .def_89))
(define-fun .def_91 () Bool (and .def_54 .def_90))
(define-fun .def_93 () Bool (and .def_91 .def_92))
(define-fun .def_97 () Bool (and .def_93 .def_96))
(define-fun .def_98 () Bool (and .def_58 .def_97))
(define-fun .def_118 () Bool (or .def_98 .def_117))
(define-fun .def_119 () Bool (and |.loc{6}| .def_118))
(define-fun .def_69 () Bool (<= |.y{12}| 0))
(define-fun .def_70 () Bool (not .def_69))
(define-fun .def_66 () Bool (<= |.y{8}| 0))
(define-fun .def_67 () Bool (not .def_66))
(define-fun .def_64 () Bool (= |.y{9}| 0))
(define-fun .def_49 () Bool (not |.loc{6}|))
(define-fun .def_60 () Bool (and |.loc{5}| .def_49))
(define-fun .def_61 () Bool (and .def_52 .def_60))
(define-fun .def_63 () Bool (and .def_61 .def_62))
(define-fun .def_65 () Bool (and .def_63 .def_64))
(define-fun .def_68 () Bool (and .def_65 .def_67))
(define-fun .def_71 () Bool (and .def_68 .def_70))
(define-fun .def_120 () Bool (or .def_71 .def_119))
(define-fun .def_56 () Bool (= .def_16 |.y{12}|))
(define-fun .def_45 () Int (+ .def_10 .def_44))
(define-fun .def_46 () Int (+ .def_8 .def_45))
(define-fun .def_47 () Bool (= .def_46 0))
(define-fun .def_34 () Bool (not .def_33))
(define-fun .def_30 () (Array Int Int) (store .def_12 |.x{83}| .def_14))
(define-fun .def_31 () Bool (= |.y{10}| .def_30))
(define-fun .def_25 () Int (* (- 1) |.y{9}|))
(define-fun .def_26 () Int (+ .def_10 .def_25))
(define-fun .def_27 () Bool (= .def_26 (- 1)))
(define-fun .def_28 () Bool (and |.loc{5}| .def_27))
(define-fun .def_32 () Bool (and .def_28 .def_31))
(define-fun .def_35 () Bool (and .def_32 .def_34))
(define-fun .def_41 () Bool (and .def_35 .def_40))
(define-fun .def_43 () Bool (and .def_41 .def_42))
(define-fun .def_48 () Bool (and .def_43 .def_47))
(define-fun .def_50 () Bool (and .def_48 .def_49))
(define-fun .def_51 () Bool (and .def_20 .def_50))
(define-fun .def_53 () Bool (and .def_51 .def_52))
(define-fun .def_55 () Bool (and .def_53 .def_54))
(define-fun .def_57 () Bool (and .def_55 .def_56))
(define-fun .def_59 () Bool (and .def_57 .def_58))
(define-fun .def_121 () Bool (! (or .def_59 .def_120) :trans true))
(define-fun .def_123 () Bool (and .def_20 .def_22))
(define-fun .def_124 () Bool (! (not .def_123) :invar-property 0))
(assert true)
